
355
750
   525      1
   524      1
   523      1
   522      2
   521      2
   520      4
   519      4
   518      4
   517      3
   516      4
   515      1
   514      3
   513      2
   512      2
   511      3
   510      2
   509      3
   508      6
   507      4
   506      4
   505      2
   504      1
   503      5
   502      1
   501      3
   500      2
   499      3
   498      2
   497      4
   496      3
   495      4
   494      1
   493      3
   492      1
   491      3
   490      5
   489      4
   488      5
   487      3
   486      3
   485      5
   484      3
   483      1
   482      2
   481      3
   480      1
   479      1
   478      2
   477      4
   476      2
   475      2
   474      3
   473      1
   472      3
   471      3
   469      5
   468      4
   467      4
   466      2
   465      1
   464      2
   463      2
   461      1
   460      2
   459      4
   458      3
   457      3
   456      5
   455      2
   454      1
   453      3
   452      6
   451      3
   450      3
   449      2
   448      1
   447      1
   446      1
   445      2
   444      5
   443      2
   442      7
   441      5
   440      3
   439      4
   438      2
   437      3
   436      2
   435      4
   434      1
   433      3
   432      1
   431      3
   430      2
   428      2
   427      7
   426      1
   425      1
   424      5
   423      3
   422      2
   421      3
   419      1
   418      1
   416      1
   415      2
   414      2
   413      2
   412      5
   411      1
   410      2
   409      2
   408      2
   407      5
   406      3
   405      4
   403      5
   402      1
   401      2
   400      3
   399      1
   398      2
   397      2
   396      6
   395      1
   394      1
   393      3
   392      4
   391      3
   390      3
   389      2
   388      3
   386      5
   385      3
   384      4
   383      5
   382      5
   381      4
   380      2
   379      4
   378      4
   377      2
   376      2
   375      6
   374      1
   373      4
   372      3
   371      3
   370      1
   369      2
   368      4
   367      1
   366      1
   365      3
   364      2
   363      4
   362      4
   361      6
   360      5
   359      2
   358      3
   357      2
   356      4
   354      4
   353      1
   352      1
   351      2
   350      1
   349      3
   348      4
   347      1
   346      3
   345      3
   344      3
   342      3
   341      2
   340      7
   339      7
   338      3
   337      7
   335      4
   334      5
   333      5
   332      3
   331      1
   330      2
   329      1
   328      2
   327      4
   326      4
   325      1
   324      3
   323      4
   322      5
   321      1
   320      4
   319      5
   318      2
   317      1
   316      3
   315      2
   314      2
   313      1
   312      6
   311      2
   310      1
   309      1
   308      3
   307      7
   306      6
   304      5
   303      2
   302      3
   301      6
   300      1
   299      6
   298      3
   297      1
   296      4
   295      3
   294      5
   293      3
   292      2
   291      6
   290      4
   289      2
   288      1
   287      1
   286      3
   285      1
   284      1
   283      4
   282      2
   281      1
   279      1
   278      3
   277      1
   276      2
   275      1
   274      1
   273      1
   272      5
   271      2
   270      1
   269      1
   268      4
   267      3
   266      3
   265      2
   264      4
   263      3
   262      3
   261      2
   260      3
   259      1
   258      1
   257      3
   256      6
   255      4
   254      1
   253      4
   252      2
   251      4
   250      3
   249      2
   248      2
   246      2
   245      2
   244      3
   243      2
   242      4
   241      1
   240      5
   239      3
   238      3
   237      7
   236      2
   234      2
   233      2
   232      4
   231      9
   230      2
   229      4
   228      2
   227      2
   226      4
   224      1
   223      2
   222      3
   221      7
   220      5
   219      3
   218      2
   217      2
   216      1
   215      2
   214      3
   213      1
   212      6
   211      5
   210      3
   209      6
   208      3
   207      3
   206      3
   205      4
   204      4
   203      1
   202      5
   201      2
   199      3
   198      1
   197      1
   196      1
   195      2
   194      2
   193      6
   191      4
   190      2
   189      3
   188      2
   187      1
   186      2
   185      3
   184      1
   183      1
   182      1
   181      1
   180      1
   179      1
   178      1
   177      2
   176      7
   175      3
   174      1
   172      3
   171      5
   170      3
   169      3
   168      2
   166      3
   165      1
   164      4
   163      2
   162      1
   161      3
   160      2
   158      1
   157      3
   156      2
   155      4
   154      1
   153      1
   151      1
   150      5




The initial LP solution: time=4.72


File: BPP_1000_750_0.2_0.7_0.txt  Instance No. 1
Wed Feb 25 13:56:07 2015

LP solution: lpval=456.6666666666665 lpbnd=457

1: 0:1 286:1 obj 1\\
1: 1:1 285:1 obj 1\\
2: 3:1 283:1 obj 1\\
2: 4:1 282:1 obj 1\\
2: 5:1 281:1 obj 1\\
2: 5:1 282:1 obj 1\\
2.071428571428571: 6:1 280:1 obj 1\\
4: 7:1 279:1 obj 1\\
2: 8:1 278:1 obj 1\\
1: 8:1 280:1 obj 1\\
0.2142857142857144: 9:1 277:1 obj 1\\
1.785714285714286: 9:1 280:1 obj 1\\
2: 9:1 284:1 obj 1\\
1: 10:1 285:1 obj 1\\
1: 11:1 276:1 obj 1\\
1: 11:1 287:1 obj 1\\
2: 12:1 275:1 obj 1\\
2: 13:1 274:1 obj 1\\
3: 14:1 273:1 obj 1\\
1: 16:1 271:1 obj 1\\
0.2142857142857144: 16:1 338:1 obj 1\\
3.928571428571428: 17:1 270:1 obj 1\\
2.071428571428572: 17:1 280:1 obj 1\\
2: 18:1 269:1 obj 1\\
2: 18:1 299:1 obj 1\\
3: 19:1 268:1 obj 1\\
1: 19:1 287:1 obj 1\\
0.7619047619047628: 20:1 267:1 obj 1\\
3.761904761904763: 22:1 272:1 obj 1\\
1.238095238095237: 22:1 275:1 obj 1\\
0.6666666666666666: 23:1 265:1 obj 1\\
2: 24:1 264:1 obj 1\\
1: 25:1 263:1 obj 1\\
1.238095238095237: 26:1 262:1 obj 1\\
2: 27:1 261:1 obj 1\\
4: 28:1 260:1 obj 1\\
1: 29:1 259:1 obj 1\\
2: 29:1 266:1 obj 1\\
4: 30:1 258:1 obj 1\\
1: 31:1 257:1 obj 1\\
3: 32:1 256:1 obj 1\\
1: 33:1 255:1 obj 1\\
1.333333333333333: 34:1 265:1 obj 1\\
3.761904761904763: 35:1 257:1 obj 1\\
2: 36:1 252:1 obj 1\\
2: 36:1 263:1 obj 1\\
2: 37:1 251:1 obj 1\\
2.071428571428571: 37:1 262:1 obj 1\\
0.9285714285714288: 37:1 340:1 obj 1\\
2: 38:1 250:1 obj 1\\
3: 39:1 249:1 obj 1\\
2: 40:1 248:1 obj 1\\
3: 40:1 290:1 obj 1\\
2.690476190476191: 41:1 247:1 obj 1\\
2: 43:1 245:1 obj 1\\
1: 44:1 244:1 obj 1\\
2: 44:1 245:1 obj 1\\
1: 45:1 243:1 obj 1\\
1: 46:1 242:1 obj 1\\
2: 47:1 241:1 obj 1\\
1: 48:1 240:1 obj 1\\
3: 48:1 241:1 obj 1\\
1: 49:1 239:1 obj 1\\
1: 49:1 242:1 obj 1\\
1: 50:1 238:1 obj 1\\
1: 50:1 246:1 obj 1\\
1: 51:1 237:1 obj 1\\
2: 51:1 246:1 obj 1\\
1: 52:1 236:1 obj 1\\
3: 53:1 235:1 obj 1\\
1: 54:1 234:1 obj 1\\
1.238095238095237: 54:1 257:1 obj 1\\
1: 55:1 233:1 obj 1\\
2: 56:1 232:1 obj 1\\
4: 57:1 231:1 obj 1\\
1: 58:1 230:1 obj 1\\
1: 59:1 229:1 obj 1\\
2: 60:1 228:1 obj 1\\
1: 61:1 227:1 obj 1\\
1: 62:1 225:1 obj 1\\
2: 63:1 224:1 obj 1\\
2: 64:1 223:1 obj 1\\
2: 65:1 222:1 obj 1\\
3: 66:1 221:1 obj 1\\
5: 67:1 220:1 obj 1\\
2: 68:1 219:1 obj 1\\
1: 70:1 217:1 obj 1\\
1: 70:1 223:1 obj 1\\
3: 71:1 216:1 obj 1\\
3: 71:1 218:1 obj 1\\
3: 72:1 215:1 obj 1\\
1: 73:1 214:1 obj 1\\
0.6666666666666665: 73:1 215:1 obj 1\\
2: 74:1 213:1 obj 1\\
1: 75:1 212:1 obj 1\\
1: 76:1 211:1 obj 1\\
1: 77:1 210:1 obj 1\\
4: 79:1 209:1 obj 1\\
2: 80:1 208:1 obj 1\\
3: 81:1 207:1 obj 1\\
3.666666666666667: 81:1 208:1 obj 1\\
1.666666666666667: 82:1 210:1 obj 1\\
1: 82:1 347:1 353:1 obj 1\\
1: 82:1 349:1 352:1 obj 1\\
1.666666666666667: 83:1 209:1 obj 1\\
1: 83:1 349:1 351:1 obj 1\\
2: 84:1 204:1 obj 1\\
2: 85:1 203:1 obj 1\\
3: 86:1 203:1 obj 1\\
1: 87:1 201:1 obj 1\\
2: 88:1 200:1 obj 1\\
1: 88:1 348:2 obj 1\\
1: 89:1 199:1 obj 1\\
1: 90:1 198:1 obj 1\\
2: 90:1 199:1 obj 1\\
1: 91:1 197:1 obj 1\\
3: 92:1 196:1 obj 1\\
2: 93:1 195:1 obj 1\\
2: 94:1 193:1 obj 1\\
3.928571428571429: 95:1 192:1 obj 1\\
3: 95:1 193:1 obj 1\\
1: 96:1 191:1 obj 1\\
0.7380952380952381: 97:1 190:1 obj 1\\
4: 98:1 189:1 obj 1\\
3: 99:1 188:1 obj 1\\
2: 100:1 187:1 obj 1\\
1: 101:1 188:1 obj 1\\
2: 101:1 191:1 obj 1\\
0.9285714285714286: 102:1 184:1 obj 1\\
1: 103:1 183:1 obj 1\\
1: 104:1 181:1 obj 1\\
1.928571428571428: 105:1 180:1 obj 1\\
1.738095238095238: 106:1 182:1 obj 1\\
2: 107:1 179:1 obj 1\\
3: 108:1 178:1 obj 1\\
2: 108:1 182:1 obj 1\\
1: 109:1 177:1 obj 1\\
2: 110:1 176:1 obj 1\\
2: 111:1 175:1 obj 1\\
1.928571428571429: 112:1 174:1 obj 1\\
1: 113:1 327:1 344:1 obj 1\\
0.6190476190476194: 113:1 328:1 343:1 obj 1\\
3: 114:1 173:1 obj 1\\
3: 115:1 172:1 obj 1\\
1: 115:1 176:1 obj 1\\
1: 116:1 170:1 obj 1\\
2: 116:1 171:1 obj 1\\
2: 116:1 176:1 obj 1\\
1: 117:1 169:1 obj 1\\
1: 118:1 168:1 obj 1\\
1: 119:1 167:1 obj 1\\
2: 119:1 169:1 obj 1\\
1: 120:1 166:1 obj 1\\
1: 121:1 165:1 obj 1\\
1: 121:1 166:1 obj 1\\
1: 122:1 164:1 obj 1\\
1: 122:1 171:1 obj 1\\
3: 123:1 163:1 obj 1\\
1: 123:1 315:1 346:1 obj 1\\
1.500000000000001: 123:1 316:1 345:1 obj 1\\
1: 124:1 315:1 345:1 obj 1\\
1: 125:1 162:1 obj 1\\
1.309523809523809: 126:1 161:1 obj 1\\
1.690476190476191: 126:1 162:1 obj 1\\
3: 127:1 160:1 obj 1\\
1: 127:1 314:1 343:1 obj 1\\
2: 128:1 159:1 obj 1\\
1: 128:1 314:1 342:1 obj 1\\
3: 129:1 158:1 obj 1\\
1: 130:1 157:1 obj 1\\
3: 131:1 156:1 obj 1\\
2: 132:1 154:1 obj 1\\
2: 132:1 155:1 obj 1\\
3: 133:1 153:1 obj 1\\
1: 134:1 152:1 obj 1\\
2: 134:1 155:1 obj 1\\
1: 134:1 156:1 obj 1\\
1: 135:1 151:1 obj 1\\
4: 135:1 157:1 obj 1\\
4: 136:1 150:1 obj 1\\
0.3095238095238092: 136:1 162:1 obj 1\\
2.904761904761905: 137:1 316:1 332:1 obj 1\\
1.095238095238095: 137:1 317:1 332:1 obj 1\\
1: 138:1 148:1 obj 1\\
1: 138:1 180:1 obj 1\\
3: 139:1 147:1 obj 1\\
1: 139:1 179:1 obj 1\\
3: 140:1 146:1 obj 1\\
1: 140:1 336:2 obj 1\\
2: 141:1 145:1 obj 1\\
1: 142:1 144:1 obj 1\\
1: 142:1 300:1 342:1 obj 1\\
2.464285714285714: 143:2 obj 1\\
1: 145:2 obj 1\\
0.9285714285714283: 158:1 288:1 339:1 obj 1\\
1: 162:1 302:1 323:1 obj 1\\
2: 168:1 289:1 333:1 obj 1\\
0.3809523809523816: 169:1 301:1 316:1 obj 1\\
1.071428571428571: 174:1 296:1 316:1 obj 1\\
0.6904761904761908: 177:1 298:1 310:1 obj 1\\
2.309523809523809: 177:1 301:1 308:1 obj 1\\
3: 177:1 303:1 306:1 obj 1\\
0.2380952380952388: 179:1 289:1 317:1 obj 1\\
0.3095238095238092: 179:1 297:1 310:1 obj 1\\
1: 180:1 295:1 317:1 obj 1\\
0.0714285714285714: 181:1 299:1 306:1 obj 1\\
1.928571428571429: 181:1 301:1 304:1 obj 1\\
1: 183:1 293:1 309:1 obj 1\\
1: 185:1 288:1 311:1 obj 1\\
0.6666666666666666: 194:1 274:1 317:1 obj 1\\
2: 196:1 289:1 300:1 obj 1\\
1: 197:1 290:1 298:1 obj 1\\
0.6190476190476194: 203:1 285:1 298:1 obj 1\\
1: 291:1 307:1 342:2 obj 1\\
2: 292:1 318:1 335:1 337:1 obj 1\\
1: 293:1 309:1 340:2 obj 1\\
1: 294:1 313:1 338:2 obj 1\\
1: 295:1 322:1 333:1 334:1 obj 1\\
1: 296:1 324:1 332:2 obj 1\\
1: 299:1 312:1 336:2 obj 1\\
1: 301:1 321:1 331:2 obj 1\\
1: 302:1 323:1 329:1 330:1 obj 1\\
0.6428571428571431: 308:2 319:1 350:1 obj 1\\
1: 319:1 320:2 323:1 obj 1\\
1: 88:1 201:1 obj 1\\
1.071428571428572: 143:1 158:1 obj 1\\
0.4523809523809523: 319:3 339:1 obj 1\\
1.928571428571429: 6:1 299:1 obj 1\\
0.3095238095238092: 41:1 290:1 obj 1\\
0.0714285714285714: 102:1 340:1 345:1 obj 1\\
0.07142857142857162: 105:1 194:1 obj 1\\
0.2619047619047619: 106:1 190:1 obj 1\\
0.0714285714285714: 112:1 184:1 obj 1\\
1: 118:1 186:1 obj 1\\
1: 149:2 obj 1\\
0.3452380952380953: 161:2 obj 1\\
1: 2:1 298:1 obj 1\\
2: 15:1 289:1 obj 1\\
1.238095238095237: 20:1 272:1 obj 1\\
1: 21:1 275:1 obj 1\\
1: 25:1 275:1 obj 1\\
1.761904761904763: 26:1 275:1 obj 1\\
1: 42:1 249:1 obj 1\\
1: 11:1 280:1 obj 1\\
1.785714285714286: 16:1 277:1 obj 1\\
0.3333333333333334: 23:1 274:1 obj 1\\
1.666666666666667: 34:1 291:1 obj 1\\
1: 38:1 254:1 obj 1\\
3: 55:1 253:1 obj 1\\
1: 56:1 237:1 obj 1\\
1: 56:1 250:1 obj 1\\
2.452380952380952: 113:1 179:1 obj 1\\
0.9285714285714286: 113:1 195:1 obj 1\\
0.4999999999999993: 123:1 176:1 obj 1\\
1: 130:1 317:1 341:1 obj 1\\
1: 24:1 276:1 obj 1\\
1.238095238095237: 35:1 267:1 obj 1\\
0.7619047619047628: 54:1 288:1 obj 1\\
0.3095238095238093: 55:1 247:1 obj 1\\
1: 58:1 251:1 obj 1\\
1: 65:1 225:1 obj 1\\
1.333333333333333: 82:1 208:1 obj 1\\
0.07142857142857117: 95:1 195:1 obj 1\\
0.6904761904761908: 136:1 297:1 350:1 obj 1\\
0.3809523809523806: 169:1 289:1 328:1 obj 1\\
0.9285714285714286: 183:1 296:1 306:1 obj 1\\
0.0714285714285714: 183:1 308:2 obj 1\\
1: 185:1 298:1 302:1 obj 1\\
2.333333333333333: 213:1 215:1 354:1 obj 1\\
0.3095238095238094: 288:1 337:3 obj 1\\
1: 304:1 325:1 326:1 335:1 obj 1\\
1: 61:1 228:1 obj 1\\
2: 64:1 224:1 obj 1\\
1: 70:1 218:1 obj 1\\
2: 78:1 210:1 obj 1\\
1: 79:1 211:1 obj 1\\
1: 84:1 205:1 obj 1\\
1: 84:1 206:1 obj 1\\
1: 98:1 195:1 obj 1\\
0.6190476190476194: 157:1 290:1 339:1 obj 1\\
0.2380952380952378: 169:1 280:1 338:1 obj 1\\
1: 176:1 310:2 obj 1\\
1: 179:1 285:1 322:1 obj 1\\
1.261904761904762: 182:1 298:1 308:1 obj 1\\
1: 212:1 226:1 346:1 obj 1\\
0.04761904761904712: 316:3 338:1 obj 1\\
0.6904761904761907: 55:1 262:1 obj 1\\
1: 69:1 219:1 obj 1\\
1.333333333333333: 73:1 354:2 obj 1\\
1: 132:1 163:1 obj 1\\
0.3809523809523806: 157:1 285:1 343:1 obj 1\\
0.5000000000000007: 176:1 280:1 338:1 obj 1\\
0.07142857142857162: 180:1 270:1 337:1 obj 1\\
2: 181:1 305:2 obj 1\\
0.0714285714285714: 192:1 290:1 304:1 obj 1\\
0.3809523809523806: 203:1 289:1 301:1 obj 1\\
1: 212:1 223:1 348:1 obj 1\\
1.666666666666667: 213:1 223:1 350:1 obj 1\\
0.3333333333333333: 280:1 336:3 obj 1\\
0.3333333333333335: 291:1 332:3 obj 1\\
0.214285714285714: 298:2 345:2 obj 1\\
0.333333333333333: 81:1 209:1 obj 1\\
1: 87:1 202:1 obj 1\\
0.2619047619047619: 97:1 194:1 obj 1\\
0.333333333333333: 210:1 223:1 350:1 obj 1\\
0.333333333333333: 83:1 350:2 obj 1\\






File: BPP_1000_750_0.2_0.7_0.txt  Instance No. 1
Wed Feb 25 13:56:07 2015

LP0 Time: 4.72 IPTime: 4.74 The best integer solution (457):

1: 0:1 286:1 obj 1\\
1: 1:1 285:1 obj 1\\
2: 3:1 283:1 obj 1\\
2: 4:1 282:1 obj 1\\
2: 5:1 281:1 obj 1\\
2: 5:1 282:1 obj 1\\
2: 6:1 280:1 obj 1\\
4: 7:1 279:1 obj 1\\
2: 8:1 278:1 obj 1\\
1: 8:1 280:1 obj 1\\
2: 9:1 280:1 obj 1\\
2: 9:1 284:1 obj 1\\
1: 10:1 285:1 obj 1\\
1: 11:1 276:1 obj 1\\
1: 11:1 287:1 obj 1\\
2: 12:1 275:1 obj 1\\
2: 13:1 274:1 obj 1\\
3: 14:1 273:1 obj 1\\
1: 16:1 271:1 obj 1\\
4: 17:1 270:1 obj 1\\
2: 17:1 280:1 obj 1\\
2: 18:1 269:1 obj 1\\
2: 18:1 299:1 obj 1\\
3: 19:1 268:1 obj 1\\
1: 19:1 287:1 obj 1\\
1: 20:1 267:1 obj 1\\
4: 22:1 272:1 obj 1\\
1: 22:1 275:1 obj 1\\
1: 23:1 265:1 obj 1\\
2: 24:1 264:1 obj 1\\
1: 25:1 263:1 obj 1\\
1: 26:1 262:1 obj 1\\
2: 27:1 261:1 obj 1\\
4: 28:1 260:1 obj 1\\
1: 29:1 259:1 obj 1\\
2: 29:1 266:1 obj 1\\
4: 30:1 258:1 obj 1\\
1: 31:1 257:1 obj 1\\
3: 32:1 256:1 obj 1\\
1: 33:1 255:1 obj 1\\
1: 34:1 265:1 obj 1\\
4: 35:1 257:1 obj 1\\
2: 36:1 252:1 obj 1\\
2: 36:1 263:1 obj 1\\
2: 37:1 251:1 obj 1\\
2: 37:1 262:1 obj 1\\
1: 37:1 340:1 obj 1\\
2: 38:1 250:1 obj 1\\
3: 39:1 249:1 obj 1\\
2: 40:1 248:1 obj 1\\
3: 40:1 290:1 obj 1\\
3: 41:1 247:1 obj 1\\
2: 43:1 245:1 obj 1\\
1: 44:1 244:1 obj 1\\
2: 44:1 245:1 obj 1\\
1: 45:1 243:1 obj 1\\
1: 46:1 242:1 obj 1\\
2: 47:1 241:1 obj 1\\
1: 48:1 240:1 obj 1\\
3: 48:1 241:1 obj 1\\
1: 49:1 239:1 obj 1\\
1: 49:1 242:1 obj 1\\
1: 50:1 238:1 obj 1\\
1: 50:1 246:1 obj 1\\
1: 51:1 237:1 obj 1\\
2: 51:1 246:1 obj 1\\
1: 52:1 236:1 obj 1\\
3: 53:1 235:1 obj 1\\
1: 54:1 234:1 obj 1\\
1: 54:1 257:1 obj 1\\
1: 55:1 233:1 obj 1\\
2: 56:1 232:1 obj 1\\
4: 57:1 231:1 obj 1\\
1: 58:1 230:1 obj 1\\
1: 59:1 229:1 obj 1\\
2: 60:1 228:1 obj 1\\
1: 61:1 227:1 obj 1\\
1: 62:1 225:1 obj 1\\
2: 63:1 224:1 obj 1\\
2: 64:1 223:1 obj 1\\
2: 65:1 222:1 obj 1\\
3: 66:1 221:1 obj 1\\
5: 67:1 220:1 obj 1\\
2: 68:1 219:1 obj 1\\
1: 70:1 217:1 obj 1\\
1: 70:1 223:1 obj 1\\
3: 71:1 216:1 obj 1\\
3: 71:1 218:1 obj 1\\
3: 72:1 215:1 obj 1\\
1: 73:1 214:1 obj 1\\
1: 73:1 215:1 obj 1\\
2: 74:1 213:1 obj 1\\
1: 75:1 212:1 obj 1\\
1: 76:1 211:1 obj 1\\
1: 77:1 210:1 obj 1\\
4: 79:1 209:1 obj 1\\
2: 80:1 208:1 obj 1\\
3: 81:1 207:1 obj 1\\
4: 81:1 208:1 obj 1\\
2: 82:1 210:1 obj 1\\
1: 82:1 347:1 353:1 obj 1\\
1: 82:1 349:1 352:1 obj 1\\
2: 83:1 209:1 obj 1\\
1: 83:1 349:1 351:1 obj 1\\
2: 84:1 204:1 obj 1\\
2: 85:1 203:1 obj 1\\
3: 86:1 203:1 obj 1\\
1: 87:1 201:1 obj 1\\
2: 88:1 200:1 obj 1\\
1: 88:1 348:2 obj 1\\
1: 89:1 199:1 obj 1\\
1: 90:1 198:1 obj 1\\
2: 90:1 199:1 obj 1\\
1: 91:1 197:1 obj 1\\
3: 92:1 196:1 obj 1\\
2: 93:1 195:1 obj 1\\
2: 94:1 193:1 obj 1\\
4: 95:1 192:1 obj 1\\
3: 95:1 193:1 obj 1\\
1: 96:1 191:1 obj 1\\
1: 97:1 190:1 obj 1\\
4: 98:1 189:1 obj 1\\
3: 99:1 188:1 obj 1\\
2: 100:1 187:1 obj 1\\
1: 101:1 188:1 obj 1\\
2: 101:1 191:1 obj 1\\
1: 102:1 184:1 obj 1\\
1: 103:1 183:1 obj 1\\
1: 104:1 181:1 obj 1\\
2: 105:1 180:1 obj 1\\
2: 106:1 182:1 obj 1\\
2: 107:1 179:1 obj 1\\
3: 108:1 178:1 obj 1\\
2: 108:1 182:1 obj 1\\
1: 109:1 177:1 obj 1\\
2: 110:1 176:1 obj 1\\
2: 111:1 175:1 obj 1\\
2: 112:1 174:1 obj 1\\
1: 113:1 327:1 344:1 obj 1\\
1: 113:1 328:1 343:1 obj 1\\
3: 114:1 173:1 obj 1\\
3: 115:1 172:1 obj 1\\
1: 115:1 176:1 obj 1\\
1: 116:1 170:1 obj 1\\
2: 116:1 171:1 obj 1\\
2: 116:1 176:1 obj 1\\
1: 117:1 169:1 obj 1\\
1: 118:1 168:1 obj 1\\
1: 119:1 167:1 obj 1\\
2: 119:1 169:1 obj 1\\
1: 120:1 166:1 obj 1\\
1: 121:1 165:1 obj 1\\
1: 121:1 166:1 obj 1\\
1: 122:1 164:1 obj 1\\
1: 122:1 171:1 obj 1\\
3: 123:1 163:1 obj 1\\
1: 123:1 315:1 346:1 obj 1\\
2: 123:1 316:1 345:1 obj 1\\
1: 124:1 315:1 345:1 obj 1\\
1: 125:1 162:1 obj 1\\
1: 126:1 161:1 obj 1\\
2: 126:1 162:1 obj 1\\
3: 127:1 160:1 obj 1\\
1: 127:1 314:1 343:1 obj 1\\
2: 128:1 159:1 obj 1\\
1: 128:1 314:1 342:1 obj 1\\
3: 129:1 158:1 obj 1\\
1: 130:1 157:1 obj 1\\
3: 131:1 156:1 obj 1\\
2: 132:1 154:1 obj 1\\
2: 132:1 155:1 obj 1\\
3: 133:1 153:1 obj 1\\
1: 134:1 152:1 obj 1\\
2: 134:1 155:1 obj 1\\
1: 134:1 156:1 obj 1\\
1: 135:1 151:1 obj 1\\
4: 135:1 157:1 obj 1\\
4: 136:1 150:1 obj 1\\
3: 137:1 316:1 332:1 obj 1\\
1: 137:1 317:1 332:1 obj 1\\
1: 138:1 148:1 obj 1\\
1: 138:1 180:1 obj 1\\
3: 139:1 147:1 obj 1\\
1: 139:1 179:1 obj 1\\
3: 140:1 146:1 obj 1\\
1: 140:1 336:2 obj 1\\
2: 141:1 145:1 obj 1\\
1: 142:1 144:1 obj 1\\
1: 142:1 300:1 342:1 obj 1\\
2: 143:2 obj 1\\
1: 145:2 obj 1\\
1: 158:1 288:1 339:1 obj 1\\
1: 162:1 302:1 323:1 obj 1\\
2: 168:1 289:1 333:1 obj 1\\
1: 174:1 296:1 316:1 obj 1\\
1: 177:1 298:1 310:1 obj 1\\
2: 177:1 301:1 308:1 obj 1\\
3: 177:1 303:1 306:1 obj 1\\
1: 180:1 295:1 317:1 obj 1\\
2: 181:1 301:1 304:1 obj 1\\
1: 183:1 293:1 309:1 obj 1\\
1: 185:1 288:1 311:1 obj 1\\
1: 194:1 274:1 317:1 obj 1\\
2: 196:1 289:1 300:1 obj 1\\
1: 197:1 290:1 298:1 obj 1\\
1: 203:1 285:1 298:1 obj 1\\
1: 291:1 307:1 342:2 obj 1\\
2: 292:1 318:1 335:1 337:1 obj 1\\
1: 293:1 309:1 340:2 obj 1\\
1: 294:1 313:1 338:2 obj 1\\
1: 295:1 322:1 333:1 334:1 obj 1\\
1: 296:1 324:1 332:2 obj 1\\
1: 299:1 312:1 336:2 obj 1\\
1: 301:1 321:1 331:2 obj 1\\
1: 302:1 323:1 329:1 330:1 obj 1\\
1: 308:2 319:1 350:1 obj 1\\
1: 319:1 320:2 323:1 obj 1\\
1: 88:1 201:1 obj 1\\
1: 143:1 158:1 obj 1\\
2: 6:1 299:1 obj 1\\
1: 118:1 186:1 obj 1\\
1: 149:2 obj 1\\
1: 2:1 298:1 obj 1\\
2: 15:1 289:1 obj 1\\
1: 20:1 272:1 obj 1\\
1: 21:1 275:1 obj 1\\
1: 25:1 275:1 obj 1\\
2: 26:1 275:1 obj 1\\
1: 42:1 249:1 obj 1\\
1: 11:1 280:1 obj 1\\
2: 16:1 277:1 obj 1\\
2: 34:1 291:1 obj 1\\
1: 38:1 254:1 obj 1\\
3: 55:1 253:1 obj 1\\
1: 56:1 237:1 obj 1\\
1: 56:1 250:1 obj 1\\
2: 113:1 179:1 obj 1\\
1: 113:1 195:1 obj 1\\
1: 130:1 317:1 341:1 obj 1\\
1: 24:1 276:1 obj 1\\
1: 35:1 267:1 obj 1\\
1: 54:1 288:1 obj 1\\
1: 58:1 251:1 obj 1\\
1: 65:1 225:1 obj 1\\
1: 82:1 208:1 obj 1\\
1: 136:1 297:1 350:1 obj 1\\
1: 183:1 296:1 306:1 obj 1\\
1: 185:1 298:1 302:1 obj 1\\
2: 213:1 215:1 354:1 obj 1\\
1: 304:1 325:1 326:1 335:1 obj 1\\
1: 61:1 228:1 obj 1\\
2: 64:1 224:1 obj 1\\
1: 70:1 218:1 obj 1\\
2: 78:1 210:1 obj 1\\
1: 79:1 211:1 obj 1\\
1: 84:1 205:1 obj 1\\
1: 84:1 206:1 obj 1\\
1: 98:1 195:1 obj 1\\
1: 157:1 290:1 339:1 obj 1\\
1: 176:1 310:2 obj 1\\
1: 179:1 285:1 322:1 obj 1\\
1: 182:1 298:1 308:1 obj 1\\
1: 212:1 226:1 346:1 obj 1\\
1: 55:1 262:1 obj 1\\
1: 69:1 219:1 obj 1\\
1: 73:1 354:2 obj 1\\
1: 132:1 163:1 obj 1\\
1: 176:1 280:1 338:1 obj 1\\
2: 181:1 305:2 obj 1\\
1: 212:1 223:1 348:1 obj 1\\
2: 213:1 223:1 350:1 obj 1\\
1: 87:1 202:1 obj 1\\
1: 169:1 179:1 obj 1\\
1: 143:1 161:1 obj 1\\
1: 319:1 332:1 336:1 337:1 obj 1\\
1: 289:1 301:1 354:1 obj 1\\



The last LP solution 


File: BPP_1000_750_0.2_0.7_0.txt  Instance No. 1
Wed Feb 25 13:56:07 2015

LP solution: lpval=456.6666666666665 lpbnd=457

1: 0:1 286:1 obj 1\\
1: 1:1 285:1 obj 1\\
2: 3:1 283:1 obj 1\\
2: 4:1 282:1 obj 1\\
2: 5:1 281:1 obj 1\\
2: 5:1 282:1 obj 1\\
2.071428571428571: 6:1 280:1 obj 1\\
4: 7:1 279:1 obj 1\\
2: 8:1 278:1 obj 1\\
1: 8:1 280:1 obj 1\\
0.2142857142857144: 9:1 277:1 obj 1\\
1.785714285714286: 9:1 280:1 obj 1\\
2: 9:1 284:1 obj 1\\
1: 10:1 285:1 obj 1\\
1: 11:1 276:1 obj 1\\
1: 11:1 287:1 obj 1\\
2: 12:1 275:1 obj 1\\
2: 13:1 274:1 obj 1\\
3: 14:1 273:1 obj 1\\
1: 16:1 271:1 obj 1\\
0.2142857142857144: 16:1 338:1 obj 1\\
3.928571428571428: 17:1 270:1 obj 1\\
2.071428571428572: 17:1 280:1 obj 1\\
2: 18:1 269:1 obj 1\\
2: 18:1 299:1 obj 1\\
3: 19:1 268:1 obj 1\\
1: 19:1 287:1 obj 1\\
0.7619047619047628: 20:1 267:1 obj 1\\
3.761904761904763: 22:1 272:1 obj 1\\
1.238095238095237: 22:1 275:1 obj 1\\
0.6666666666666666: 23:1 265:1 obj 1\\
2: 24:1 264:1 obj 1\\
1: 25:1 263:1 obj 1\\
1.238095238095237: 26:1 262:1 obj 1\\
2: 27:1 261:1 obj 1\\
4: 28:1 260:1 obj 1\\
1: 29:1 259:1 obj 1\\
2: 29:1 266:1 obj 1\\
4: 30:1 258:1 obj 1\\
1: 31:1 257:1 obj 1\\
3: 32:1 256:1 obj 1\\
1: 33:1 255:1 obj 1\\
1.333333333333333: 34:1 265:1 obj 1\\
3.761904761904763: 35:1 257:1 obj 1\\
2: 36:1 252:1 obj 1\\
2: 36:1 263:1 obj 1\\
2: 37:1 251:1 obj 1\\
2.071428571428571: 37:1 262:1 obj 1\\
0.9285714285714288: 37:1 340:1 obj 1\\
2: 38:1 250:1 obj 1\\
3: 39:1 249:1 obj 1\\
2: 40:1 248:1 obj 1\\
3: 40:1 290:1 obj 1\\
2.690476190476191: 41:1 247:1 obj 1\\
2: 43:1 245:1 obj 1\\
1: 44:1 244:1 obj 1\\
2: 44:1 245:1 obj 1\\
1: 45:1 243:1 obj 1\\
1: 46:1 242:1 obj 1\\
2: 47:1 241:1 obj 1\\
1: 48:1 240:1 obj 1\\
3: 48:1 241:1 obj 1\\
1: 49:1 239:1 obj 1\\
1: 49:1 242:1 obj 1\\
1: 50:1 238:1 obj 1\\
1: 50:1 246:1 obj 1\\
1: 51:1 237:1 obj 1\\
2: 51:1 246:1 obj 1\\
1: 52:1 236:1 obj 1\\
3: 53:1 235:1 obj 1\\
1: 54:1 234:1 obj 1\\
1.238095238095237: 54:1 257:1 obj 1\\
1: 55:1 233:1 obj 1\\
2: 56:1 232:1 obj 1\\
4: 57:1 231:1 obj 1\\
1: 58:1 230:1 obj 1\\
1: 59:1 229:1 obj 1\\
2: 60:1 228:1 obj 1\\
1: 61:1 227:1 obj 1\\
1: 62:1 225:1 obj 1\\
2: 63:1 224:1 obj 1\\
2: 64:1 223:1 obj 1\\
2: 65:1 222:1 obj 1\\
3: 66:1 221:1 obj 1\\
5: 67:1 220:1 obj 1\\
2: 68:1 219:1 obj 1\\
1: 70:1 217:1 obj 1\\
1: 70:1 223:1 obj 1\\
3: 71:1 216:1 obj 1\\
3: 71:1 218:1 obj 1\\
3: 72:1 215:1 obj 1\\
1: 73:1 214:1 obj 1\\
0.6666666666666665: 73:1 215:1 obj 1\\
2: 74:1 213:1 obj 1\\
1: 75:1 212:1 obj 1\\
1: 76:1 211:1 obj 1\\
1: 77:1 210:1 obj 1\\
4: 79:1 209:1 obj 1\\
2: 80:1 208:1 obj 1\\
3: 81:1 207:1 obj 1\\
3.666666666666667: 81:1 208:1 obj 1\\
1.666666666666667: 82:1 210:1 obj 1\\
1: 82:1 347:1 353:1 obj 1\\
1: 82:1 349:1 352:1 obj 1\\
1.666666666666667: 83:1 209:1 obj 1\\
1: 83:1 349:1 351:1 obj 1\\
2: 84:1 204:1 obj 1\\
2: 85:1 203:1 obj 1\\
3: 86:1 203:1 obj 1\\
1: 87:1 201:1 obj 1\\
2: 88:1 200:1 obj 1\\
1: 88:1 348:2 obj 1\\
1: 89:1 199:1 obj 1\\
1: 90:1 198:1 obj 1\\
2: 90:1 199:1 obj 1\\
1: 91:1 197:1 obj 1\\
3: 92:1 196:1 obj 1\\
2: 93:1 195:1 obj 1\\
2: 94:1 193:1 obj 1\\
3.928571428571429: 95:1 192:1 obj 1\\
3: 95:1 193:1 obj 1\\
1: 96:1 191:1 obj 1\\
0.7380952380952381: 97:1 190:1 obj 1\\
4: 98:1 189:1 obj 1\\
3: 99:1 188:1 obj 1\\
2: 100:1 187:1 obj 1\\
1: 101:1 188:1 obj 1\\
2: 101:1 191:1 obj 1\\
0.9285714285714286: 102:1 184:1 obj 1\\
1: 103:1 183:1 obj 1\\
1: 104:1 181:1 obj 1\\
1.928571428571428: 105:1 180:1 obj 1\\
1.738095238095238: 106:1 182:1 obj 1\\
2: 107:1 179:1 obj 1\\
3: 108:1 178:1 obj 1\\
2: 108:1 182:1 obj 1\\
1: 109:1 177:1 obj 1\\
2: 110:1 176:1 obj 1\\
2: 111:1 175:1 obj 1\\
1.928571428571429: 112:1 174:1 obj 1\\
1: 113:1 327:1 344:1 obj 1\\
0.6190476190476194: 113:1 328:1 343:1 obj 1\\
3: 114:1 173:1 obj 1\\
3: 115:1 172:1 obj 1\\
1: 115:1 176:1 obj 1\\
1: 116:1 170:1 obj 1\\
2: 116:1 171:1 obj 1\\
2: 116:1 176:1 obj 1\\
1: 117:1 169:1 obj 1\\
1: 118:1 168:1 obj 1\\
1: 119:1 167:1 obj 1\\
2: 119:1 169:1 obj 1\\
1: 120:1 166:1 obj 1\\
1: 121:1 165:1 obj 1\\
1: 121:1 166:1 obj 1\\
1: 122:1 164:1 obj 1\\
1: 122:1 171:1 obj 1\\
3: 123:1 163:1 obj 1\\
1: 123:1 315:1 346:1 obj 1\\
1.500000000000001: 123:1 316:1 345:1 obj 1\\
1: 124:1 315:1 345:1 obj 1\\
1: 125:1 162:1 obj 1\\
1.309523809523809: 126:1 161:1 obj 1\\
1.690476190476191: 126:1 162:1 obj 1\\
3: 127:1 160:1 obj 1\\
1: 127:1 314:1 343:1 obj 1\\
2: 128:1 159:1 obj 1\\
1: 128:1 314:1 342:1 obj 1\\
3: 129:1 158:1 obj 1\\
1: 130:1 157:1 obj 1\\
3: 131:1 156:1 obj 1\\
2: 132:1 154:1 obj 1\\
2: 132:1 155:1 obj 1\\
3: 133:1 153:1 obj 1\\
1: 134:1 152:1 obj 1\\
2: 134:1 155:1 obj 1\\
1: 134:1 156:1 obj 1\\
1: 135:1 151:1 obj 1\\
4: 135:1 157:1 obj 1\\
4: 136:1 150:1 obj 1\\
0.3095238095238092: 136:1 162:1 obj 1\\
2.904761904761905: 137:1 316:1 332:1 obj 1\\
1.095238095238095: 137:1 317:1 332:1 obj 1\\
1: 138:1 148:1 obj 1\\
1: 138:1 180:1 obj 1\\
3: 139:1 147:1 obj 1\\
1: 139:1 179:1 obj 1\\
3: 140:1 146:1 obj 1\\
1: 140:1 336:2 obj 1\\
2: 141:1 145:1 obj 1\\
1: 142:1 144:1 obj 1\\
1: 142:1 300:1 342:1 obj 1\\
2.464285714285714: 143:2 obj 1\\
1: 145:2 obj 1\\
0.9285714285714283: 158:1 288:1 339:1 obj 1\\
1: 162:1 302:1 323:1 obj 1\\
2: 168:1 289:1 333:1 obj 1\\
0.3809523809523816: 169:1 301:1 316:1 obj 1\\
1.071428571428571: 174:1 296:1 316:1 obj 1\\
0.6904761904761908: 177:1 298:1 310:1 obj 1\\
2.309523809523809: 177:1 301:1 308:1 obj 1\\
3: 177:1 303:1 306:1 obj 1\\
0.2380952380952388: 179:1 289:1 317:1 obj 1\\
0.3095238095238092: 179:1 297:1 310:1 obj 1\\
1: 180:1 295:1 317:1 obj 1\\
0.0714285714285714: 181:1 299:1 306:1 obj 1\\
1.928571428571429: 181:1 301:1 304:1 obj 1\\
1: 183:1 293:1 309:1 obj 1\\
1: 185:1 288:1 311:1 obj 1\\
0.6666666666666666: 194:1 274:1 317:1 obj 1\\
2: 196:1 289:1 300:1 obj 1\\
1: 197:1 290:1 298:1 obj 1\\
0.6190476190476194: 203:1 285:1 298:1 obj 1\\
1: 291:1 307:1 342:2 obj 1\\
2: 292:1 318:1 335:1 337:1 obj 1\\
1: 293:1 309:1 340:2 obj 1\\
1: 294:1 313:1 338:2 obj 1\\
1: 295:1 322:1 333:1 334:1 obj 1\\
1: 296:1 324:1 332:2 obj 1\\
1: 299:1 312:1 336:2 obj 1\\
1: 301:1 321:1 331:2 obj 1\\
1: 302:1 323:1 329:1 330:1 obj 1\\
0.6428571428571431: 308:2 319:1 350:1 obj 1\\
1: 319:1 320:2 323:1 obj 1\\
1: 88:1 201:1 obj 1\\
1.071428571428572: 143:1 158:1 obj 1\\
0.4523809523809523: 319:3 339:1 obj 1\\
1.928571428571429: 6:1 299:1 obj 1\\
0.3095238095238092: 41:1 290:1 obj 1\\
0.0714285714285714: 102:1 340:1 345:1 obj 1\\
0.07142857142857162: 105:1 194:1 obj 1\\
0.2619047619047619: 106:1 190:1 obj 1\\
0.0714285714285714: 112:1 184:1 obj 1\\
1: 118:1 186:1 obj 1\\
1: 149:2 obj 1\\
0.3452380952380953: 161:2 obj 1\\
1: 2:1 298:1 obj 1\\
2: 15:1 289:1 obj 1\\
1.238095238095237: 20:1 272:1 obj 1\\
1: 21:1 275:1 obj 1\\
1: 25:1 275:1 obj 1\\
1.761904761904763: 26:1 275:1 obj 1\\
1: 42:1 249:1 obj 1\\
1: 11:1 280:1 obj 1\\
1.785714285714286: 16:1 277:1 obj 1\\
0.3333333333333334: 23:1 274:1 obj 1\\
1.666666666666667: 34:1 291:1 obj 1\\
1: 38:1 254:1 obj 1\\
3: 55:1 253:1 obj 1\\
1: 56:1 237:1 obj 1\\
1: 56:1 250:1 obj 1\\
2.452380952380952: 113:1 179:1 obj 1\\
0.9285714285714286: 113:1 195:1 obj 1\\
0.4999999999999993: 123:1 176:1 obj 1\\
1: 130:1 317:1 341:1 obj 1\\
1: 24:1 276:1 obj 1\\
1.238095238095237: 35:1 267:1 obj 1\\
0.7619047619047628: 54:1 288:1 obj 1\\
0.3095238095238093: 55:1 247:1 obj 1\\
1: 58:1 251:1 obj 1\\
1: 65:1 225:1 obj 1\\
1.333333333333333: 82:1 208:1 obj 1\\
0.07142857142857117: 95:1 195:1 obj 1\\
0.6904761904761908: 136:1 297:1 350:1 obj 1\\
0.3809523809523806: 169:1 289:1 328:1 obj 1\\
0.9285714285714286: 183:1 296:1 306:1 obj 1\\
0.0714285714285714: 183:1 308:2 obj 1\\
1: 185:1 298:1 302:1 obj 1\\
2.333333333333333: 213:1 215:1 354:1 obj 1\\
0.3095238095238094: 288:1 337:3 obj 1\\
1: 304:1 325:1 326:1 335:1 obj 1\\
1: 61:1 228:1 obj 1\\
2: 64:1 224:1 obj 1\\
1: 70:1 218:1 obj 1\\
2: 78:1 210:1 obj 1\\
1: 79:1 211:1 obj 1\\
1: 84:1 205:1 obj 1\\
1: 84:1 206:1 obj 1\\
1: 98:1 195:1 obj 1\\
0.6190476190476194: 157:1 290:1 339:1 obj 1\\
0.2380952380952378: 169:1 280:1 338:1 obj 1\\
1: 176:1 310:2 obj 1\\
1: 179:1 285:1 322:1 obj 1\\
1.261904761904762: 182:1 298:1 308:1 obj 1\\
1: 212:1 226:1 346:1 obj 1\\
0.04761904761904712: 316:3 338:1 obj 1\\
0.6904761904761907: 55:1 262:1 obj 1\\
1: 69:1 219:1 obj 1\\
1.333333333333333: 73:1 354:2 obj 1\\
1: 132:1 163:1 obj 1\\
0.3809523809523806: 157:1 285:1 343:1 obj 1\\
0.5000000000000007: 176:1 280:1 338:1 obj 1\\
0.07142857142857162: 180:1 270:1 337:1 obj 1\\
2: 181:1 305:2 obj 1\\
0.0714285714285714: 192:1 290:1 304:1 obj 1\\
0.3809523809523806: 203:1 289:1 301:1 obj 1\\
1: 212:1 223:1 348:1 obj 1\\
1.666666666666667: 213:1 223:1 350:1 obj 1\\
0.3333333333333333: 280:1 336:3 obj 1\\
0.3333333333333335: 291:1 332:3 obj 1\\
0.214285714285714: 298:2 345:2 obj 1\\
0.333333333333333: 81:1 209:1 obj 1\\
1: 87:1 202:1 obj 1\\
0.2619047619047619: 97:1 194:1 obj 1\\
0.333333333333333: 210:1 223:1 350:1 obj 1\\
0.333333333333333: 83:1 350:2 obj 1\\



